unknown
(model
; cardinality of BoundSet is 2
(declare-sort BoundSet 0)
; rep: @uc_BoundSet_0
; rep: @uc_BoundSet_1
; cardinality of UnboundSet is 1
(declare-sort UnboundSet 0)
(declare-fun groundTerm_3 () UnboundSet)
(define-fun IsNear ((BOUND_VARIABLE_479 BoundSet) (BOUND_VARIABLE_480 BoundSet)) Bool true)
(define-fun IsHas ((BOUND_VARIABLE_479 BoundSet) (BOUND_VARIABLE_480 BoundSet)) Bool false)
(define-fun IsNearby ((BOUND_VARIABLE_495 BoundSet)) Bool false)
)
unsat
(error "Cannot get model unless immediately preceded by SAT/NOT_ENTAILED or UNKNOWN response.")
